NAME : tsp_404_sol.txt
COMMENT : OR-Tools Guided Local Search
TYPE : TOUR
DIMENSION : 50
COST : 4827
STATUS : ROUTING_SUCCESS
GAP : 0.00% (Reference Solution)
TOUR_SECTION
1
35
2
26
44
43
46
16
25
38
48
11
20
3
29
10
33
21
30
37
6
42
5
19
27
15
34
41
17
7
39
36
31
28
24
18
4
22
50
47
12
8
9
45
32
40
23
14
13
49
-1
